NAME /Users/henri/Research/solvers/instances/idol-instances/robust/collection/cbp_Subramanyam_et_al_2020/CapBud_N30_1/models/uncertain_technology_matrix/
ROWS
 N  OBJ
 L  capacity
 L  c_5160
 L  c_5161
 L  c_5162
 L  c_5163
 L  c_5164
 L  c_5165
 L  c_5166
 L  c_5167
 L  c_5168
 L  c_5169
 L  c_5170
 L  c_5171
 L  c_5172
 L  c_5173
 L  c_5174
 L  c_5175
 L  c_5176
 L  c_5177
 L  c_5178
 L  c_5179
 L  c_5180
 L  c_5181
 L  c_5182
 L  c_5183
 L  c_5184
 L  c_5185
 L  c_5186
 L  c_5187
 L  c_5188
 L  c_5189
COLUMNS
    MARKER    'MARKER'                 'INTORG'
    x_0        OBJ        4.68879
    x_0        c_5160     1
    x_0        capacity   0.937758
    x_1        OBJ        9.01843
    x_1        c_5161     1
    x_1        capacity   1.80369
    x_2        OBJ        9.74262
    x_2        c_5162     1
    x_2        capacity   1.94852
    x_3        OBJ        7.61911
    x_3        c_5163     1
    x_3        capacity   1.52382
    x_4        OBJ        0.0234247
    x_4        c_5164     1
    x_4        capacity   0.00468493
    x_5        OBJ        1.49434
    x_5        c_5165     1
    x_5        capacity   0.298867
    x_6        OBJ        6.22127
    x_6        c_5166     1
    x_6        capacity   1.24425
    x_7        OBJ        5.67726
    x_7        c_5167     1
    x_7        capacity   1.13545
    x_8        OBJ        5.26311
    x_8        c_5168     1
    x_8        capacity   1.05262
    x_9        OBJ        6.05351
    x_9        c_5169     1
    x_9        capacity   1.2107
    x_10       OBJ        0.769917
    x_10       c_5170     1
    x_10       capacity   0.153983
    x_11       OBJ        3.74861
    x_11       c_5171     1
    x_11       capacity   0.749721
    x_12       OBJ        9.01907
    x_12       c_5172     1
    x_12       capacity   1.80381
    x_13       OBJ        4.44402
    x_13       c_5173     1
    x_13       capacity   0.888804
    x_14       OBJ        5.56867
    x_14       c_5174     1
    x_14       capacity   1.11373
    x_15       OBJ        6.30787
    x_15       c_5175     1
    x_15       capacity   1.26157
    x_16       OBJ        2.71059
    x_16       c_5176     1
    x_16       capacity   0.542118
    x_17       OBJ        5.71816
    x_17       c_5177     1
    x_17       capacity   1.14363
    x_18       OBJ        5.49777
    x_18       c_5178     1
    x_18       capacity   1.09955
    x_19       OBJ        9.5573
    x_19       c_5179     1
    x_19       capacity   1.91146
    x_20       OBJ        9.42636
    x_20       c_5180     1
    x_20       capacity   1.88527
    x_21       OBJ        7.09716
    x_21       c_5181     1
    x_21       capacity   1.41943
    x_22       OBJ        2.51892
    x_22       c_5182     1
    x_22       capacity   0.503784
    x_23       OBJ        3.11302
    x_23       c_5183     1
    x_23       capacity   0.622604
    x_24       OBJ        4.23813
    x_24       c_5184     1
    x_24       capacity   0.847626
    x_25       OBJ        3.288
    x_25       c_5185     1
    x_25       capacity   0.6576
    x_26       OBJ        0.613691
    x_26       c_5186     1
    x_26       capacity   0.122738
    x_27       OBJ        4.7158
    x_27       c_5187     1
    x_27       capacity   0.943161
    x_28       OBJ        5.1022
    x_28       c_5188     1
    x_28       capacity   1.02044
    x_29       OBJ        0.0960083
    x_29       c_5189     1
    x_29       capacity   0.0192017
    y_0        OBJ        3.75103
    y_0        c_5160     1
    y_0        capacity   0.937758
    y_1        OBJ        7.21474
    y_1        c_5161     1
    y_1        capacity   1.80369
    y_2        OBJ        7.79409
    y_2        c_5162     1
    y_2        capacity   1.94852
    y_3        OBJ        6.09529
    y_3        c_5163     1
    y_3        capacity   1.52382
    y_4        OBJ        0.0187397
    y_4        c_5164     1
    y_4        capacity   0.00468493
    y_5        OBJ        1.19547
    y_5        c_5165     1
    y_5        capacity   0.298867
    y_6        OBJ        4.97702
    y_6        c_5166     1
    y_6        capacity   1.24425
    y_7        OBJ        4.54181
    y_7        c_5167     1
    y_7        capacity   1.13545
    y_8        OBJ        4.21049
    y_8        c_5168     1
    y_8        capacity   1.05262
    y_9        OBJ        4.84281
    y_9        c_5169     1
    y_9        capacity   1.2107
    y_10       OBJ        0.615933
    y_10       c_5170     1
    y_10       capacity   0.153983
    y_11       OBJ        2.99888
    y_11       c_5171     1
    y_11       capacity   0.749721
    y_12       OBJ        7.21525
    y_12       c_5172     1
    y_12       capacity   1.80381
    y_13       OBJ        3.55522
    y_13       c_5173     1
    y_13       capacity   0.888804
    y_14       OBJ        4.45493
    y_14       c_5174     1
    y_14       capacity   1.11373
    y_15       OBJ        5.0463
    y_15       c_5175     1
    y_15       capacity   1.26157
    y_16       OBJ        2.16847
    y_16       c_5176     1
    y_16       capacity   0.542118
    y_17       OBJ        4.57453
    y_17       c_5177     1
    y_17       capacity   1.14363
    y_18       OBJ        4.39821
    y_18       c_5178     1
    y_18       capacity   1.09955
    y_19       OBJ        7.64584
    y_19       c_5179     1
    y_19       capacity   1.91146
    y_20       OBJ        7.54109
    y_20       c_5180     1
    y_20       capacity   1.88527
    y_21       OBJ        5.67773
    y_21       c_5181     1
    y_21       capacity   1.41943
    y_22       OBJ        2.01514
    y_22       c_5182     1
    y_22       capacity   0.503784
    y_23       OBJ        2.49041
    y_23       c_5183     1
    y_23       capacity   0.622604
    y_24       OBJ        3.3905
    y_24       c_5184     1
    y_24       capacity   0.847626
    y_25       OBJ        2.6304
    y_25       c_5185     1
    y_25       capacity   0.6576
    y_26       OBJ        0.490953
    y_26       c_5186     1
    y_26       capacity   0.122738
    y_27       OBJ        3.77264
    y_27       c_5187     1
    y_27       capacity   0.943161
    y_28       OBJ        4.08176
    y_28       c_5188     1
    y_28       capacity   1.02044
    y_29       OBJ        0.0768067
    y_29       c_5189     1
    y_29       capacity   0.0192017
    MARKER    'MARKER'                 'INTEND'
RHS
    RHS       capacity   74.6766
    RHS       c_5160     1
    RHS       c_5161     1
    RHS       c_5162     1
    RHS       c_5163     1
    RHS       c_5164     1
    RHS       c_5165     1
    RHS       c_5166     1
    RHS       c_5167     1
    RHS       c_5168     1
    RHS       c_5169     1
    RHS       c_5170     1
    RHS       c_5171     1
    RHS       c_5172     1
    RHS       c_5173     1
    RHS       c_5174     1
    RHS       c_5175     1
    RHS       c_5176     1
    RHS       c_5177     1
    RHS       c_5178     1
    RHS       c_5179     1
    RHS       c_5180     1
    RHS       c_5181     1
    RHS       c_5182     1
    RHS       c_5183     1
    RHS       c_5184     1
    RHS       c_5185     1
    RHS       c_5186     1
    RHS       c_5187     1
    RHS       c_5188     1
    RHS       c_5189     1
BOUNDS
 LI BND       x_0        0
 UI BND       x_0        1
 LI BND       x_1        0
 UI BND       x_1        1
 LI BND       x_2        0
 UI BND       x_2        1
 LI BND       x_3        0
 UI BND       x_3        1
 LI BND       x_4        0
 UI BND       x_4        1
 LI BND       x_5        0
 UI BND       x_5        1
 LI BND       x_6        0
 UI BND       x_6        1
 LI BND       x_7        0
 UI BND       x_7        1
 LI BND       x_8        0
 UI BND       x_8        1
 LI BND       x_9        0
 UI BND       x_9        1
 LI BND       x_10       0
 UI BND       x_10       1
 LI BND       x_11       0
 UI BND       x_11       1
 LI BND       x_12       0
 UI BND       x_12       1
 LI BND       x_13       0
 UI BND       x_13       1
 LI BND       x_14       0
 UI BND       x_14       1
 LI BND       x_15       0
 UI BND       x_15       1
 LI BND       x_16       0
 UI BND       x_16       1
 LI BND       x_17       0
 UI BND       x_17       1
 LI BND       x_18       0
 UI BND       x_18       1
 LI BND       x_19       0
 UI BND       x_19       1
 LI BND       x_20       0
 UI BND       x_20       1
 LI BND       x_21       0
 UI BND       x_21       1
 LI BND       x_22       0
 UI BND       x_22       1
 LI BND       x_23       0
 UI BND       x_23       1
 LI BND       x_24       0
 UI BND       x_24       1
 LI BND       x_25       0
 UI BND       x_25       1
 LI BND       x_26       0
 UI BND       x_26       1
 LI BND       x_27       0
 UI BND       x_27       1
 LI BND       x_28       0
 UI BND       x_28       1
 LI BND       x_29       0
 UI BND       x_29       1
 LI BND       y_0        0
 UI BND       y_0        1
 LI BND       y_1        0
 UI BND       y_1        1
 LI BND       y_2        0
 UI BND       y_2        1
 LI BND       y_3        0
 UI BND       y_3        1
 LI BND       y_4        0
 UI BND       y_4        1
 LI BND       y_5        0
 UI BND       y_5        1
 LI BND       y_6        0
 UI BND       y_6        1
 LI BND       y_7        0
 UI BND       y_7        1
 LI BND       y_8        0
 UI BND       y_8        1
 LI BND       y_9        0
 UI BND       y_9        1
 LI BND       y_10       0
 UI BND       y_10       1
 LI BND       y_11       0
 UI BND       y_11       1
 LI BND       y_12       0
 UI BND       y_12       1
 LI BND       y_13       0
 UI BND       y_13       1
 LI BND       y_14       0
 UI BND       y_14       1
 LI BND       y_15       0
 UI BND       y_15       1
 LI BND       y_16       0
 UI BND       y_16       1
 LI BND       y_17       0
 UI BND       y_17       1
 LI BND       y_18       0
 UI BND       y_18       1
 LI BND       y_19       0
 UI BND       y_19       1
 LI BND       y_20       0
 UI BND       y_20       1
 LI BND       y_21       0
 UI BND       y_21       1
 LI BND       y_22       0
 UI BND       y_22       1
 LI BND       y_23       0
 UI BND       y_23       1
 LI BND       y_24       0
 UI BND       y_24       1
 LI BND       y_25       0
 UI BND       y_25       1
 LI BND       y_26       0
 UI BND       y_26       1
 LI BND       y_27       0
 UI BND       y_27       1
 LI BND       y_28       0
 UI BND       y_28       1
 LI BND       y_29       0
 UI BND       y_29       1
ENDATA
